c Standarized MaxSat Instance
c{
c "sha1sum": "575d5d4162c3d91db62baf21643fc39782a6e1d7",
c "nvars": 261,
c "ncls": 669,
c "total_lits": 1826,
c "nhards": 614,
c "nhard_nlits": 1771,
c "nhard_len_stats":
c    { "min": 2,
c      "max": 4,
c      "ave": 2.8844,
c      "stddev": 0.6442 },
c "nsofts": 55,
c "nsoft_nlits": 55,
c "nsoft_len_stats":
c    { "min": 1,
c      "max": 1,
c      "ave": 1.0000,
c      "stddev": 0.0000 },
c "nsoft_wts": 1,
c "soft_wt_stats":
c    { "min": 1,
c      "max": 1,
c      "ave": 1.0000,
c      "stddev": 0.0000 }
c}
c------------------------------------------------------------
c This instance encodes a supposedly trivial MaxSAT formula.
c The hard part of the formula encodes a cardinality constraint:
c     x1 + ... + x55 <= 24
c Cardinality encoding used is 'kmtot'.
c The soft part prefers all the variables to be set to true:
c     x1 = 1, ..., x55 = 1
c As a result, the optimum cost for this formula is 31.
c
1 1 0
1 2 0
1 3 0
1 4 0
1 5 0
1 6 0
1 7 0
1 8 0
1 9 0
1 10 0
1 11 0
1 12 0
1 13 0
1 14 0
1 15 0
1 16 0
1 17 0
1 18 0
1 19 0
1 20 0
1 21 0
1 22 0
1 23 0
1 24 0
1 25 0
1 26 0
1 27 0
1 28 0
1 29 0
1 30 0
1 31 0
1 32 0
1 33 0
1 34 0
1 35 0
1 36 0
1 37 0
1 38 0
1 39 0
1 40 0
1 41 0
1 42 0
1 43 0
1 44 0
1 45 0
1 46 0
1 47 0
1 48 0
1 49 0
1 50 0
1 51 0
1 52 0
1 53 0
1 54 0
1 55 0
h -80 62 83 0
h -81 63 83 0
h -82 64 83 0
h -71 62 83 0
h -72 63 83 0
h -73 64 83 0
h -71 -80 63 83 0
h -71 -81 64 83 0
h -71 -82 83 0
h -72 -80 64 83 0
h -72 -81 83 0
h -72 -82 62 0
h -73 -80 83 0
h -73 -81 62 0
h -73 -82 63 0
h -83 56 0
h -74 56 0
h -83 -74 57 0
h -75 57 0
h -83 -75 58 0
h -76 58 0
h -83 -76 59 0
h -77 59 0
h -83 -77 60 0
h -78 60 0
h -83 -78 61 0
h -79 61 0
h -83 -79 0
h -65 56 0
h -83 -65 57 0
h -66 57 0
h -83 -66 58 0
h -67 58 0
h -83 -67 59 0
h -68 59 0
h -83 -68 60 0
h -69 60 0
h -83 -69 61 0
h -70 61 0
h -83 -70 0
h -65 -74 57 0
h -83 -65 -74 58 0
h -65 -75 58 0
h -83 -65 -75 59 0
h -65 -76 59 0
h -83 -65 -76 60 0
h -65 -77 60 0
h -83 -65 -77 61 0
h -65 -78 61 0
h -83 -65 -78 0
h -65 -79 0
h -83 -65 -79 0
h -66 -74 58 0
h -83 -66 -74 59 0
h -66 -75 59 0
h -83 -66 -75 60 0
h -66 -76 60 0
h -83 -66 -76 61 0
h -66 -77 61 0
h -83 -66 -77 0
h -66 -78 0
h -83 -66 -78 0
h -66 -79 0
h -83 -66 -79 0
h -67 -74 59 0
h -83 -67 -74 60 0
h -67 -75 60 0
h -83 -67 -75 61 0
h -67 -76 61 0
h -83 -67 -76 0
h -67 -77 0
h -83 -67 -77 0
h -67 -78 0
h -83 -67 -78 0
h -67 -79 0
h -83 -67 -79 0
h -68 -74 60 0
h -83 -68 -74 61 0
h -68 -75 61 0
h -83 -68 -75 0
h -68 -76 0
h -83 -68 -76 0
h -68 -77 0
h -83 -68 -77 0
h -68 -78 0
h -83 -68 -78 0
h -68 -79 0
h -83 -68 -79 0
h -69 -74 61 0
h -83 -69 -74 0
h -69 -75 0
h -83 -69 -75 0
h -69 -76 0
h -83 -69 -76 0
h -69 -77 0
h -83 -69 -77 0
h -69 -78 0
h -83 -69 -78 0
h -69 -79 0
h -83 -69 -79 0
h -70 -74 0
h -83 -70 -74 0
h -70 -75 0
h -83 -70 -75 0
h -70 -76 0
h -83 -70 -76 0
h -70 -77 0
h -83 -70 -77 0
h -70 -78 0
h -83 -70 -78 0
h -70 -79 0
h -83 -70 -79 0
h -93 80 96 0
h -94 81 96 0
h -95 82 96 0
h -87 80 96 0
h -88 81 96 0
h -89 82 96 0
h -87 -93 81 96 0
h -87 -94 82 96 0
h -87 -95 96 0
h -88 -93 82 96 0
h -88 -94 96 0
h -88 -95 80 0
h -89 -93 96 0
h -89 -94 80 0
h -89 -95 81 0
h -96 74 0
h -90 74 0
h -96 -90 75 0
h -91 75 0
h -96 -91 76 0
h -92 76 0
h -96 -92 77 0
h -84 74 0
h -96 -84 75 0
h -85 75 0
h -96 -85 76 0
h -86 76 0
h -96 -86 77 0
h -84 -90 75 0
h -96 -84 -90 76 0
h -84 -91 76 0
h -96 -84 -91 77 0
h -84 -92 77 0
h -96 -84 -92 78 0
h -85 -90 76 0
h -96 -85 -90 77 0
h -85 -91 77 0
h -96 -85 -91 78 0
h -85 -92 78 0
h -96 -85 -92 79 0
h -86 -90 77 0
h -96 -86 -90 78 0
h -86 -91 78 0
h -96 -86 -91 79 0
h -86 -92 79 0
h -96 -86 -92 0
h -102 93 105 0
h -103 94 105 0
h -104 95 105 0
h -98 93 105 0
h -99 94 105 0
h -100 95 105 0
h -98 -102 94 105 0
h -98 -103 95 105 0
h -98 -104 105 0
h -99 -102 95 105 0
h -99 -103 105 0
h -99 -104 93 0
h -100 -102 105 0
h -100 -103 93 0
h -100 -104 94 0
h -105 90 0
h -101 90 0
h -105 -101 91 0
h -97 90 0
h -105 -97 91 0
h -97 -101 91 0
h -105 -97 -101 92 0
h -52 106 0
h -109 106 0
h -110 107 0
h -109 -52 107 0
h -110 -52 108 0
h -51 109 0
h -50 109 0
h -50 -51 110 0
h -55 111 0
h -114 111 0
h -115 112 0
h -114 -55 112 0
h -115 -55 113 0
h -54 114 0
h -53 114 0
h -53 -54 115 0
h -111 102 116 0
h -112 103 116 0
h -113 104 116 0
h -106 102 116 0
h -107 103 116 0
h -108 104 116 0
h -106 -111 103 116 0
h -106 -112 104 116 0
h -106 -113 116 0
h -107 -111 104 116 0
h -107 -112 116 0
h -107 -113 102 0
h -108 -111 116 0
h -108 -112 102 0
h -108 -113 103 0
h -116 101 0
h -49 121 0
h -124 121 0
h -125 122 0
h -124 -49 122 0
h -125 -49 123 0
h -48 124 0
h -47 124 0
h -47 -48 125 0
h -121 98 126 0
h -122 99 126 0
h -123 100 126 0
h -118 98 126 0
h -119 99 126 0
h -120 100 126 0
h -118 -121 99 126 0
h -118 -122 100 126 0
h -118 -123 126 0
h -119 -121 100 126 0
h -119 -122 126 0
h -119 -123 98 0
h -120 -121 126 0
h -120 -122 98 0
h -120 -123 99 0
h -126 97 0
h -117 97 0
h -126 -117 0
h -44 127 0
h -43 127 0
h -43 -44 128 0
h -46 129 0
h -45 129 0
h -45 -46 130 0
h -129 118 131 0
h -130 119 131 0
h -127 118 131 0
h -128 119 131 0
h -127 -129 119 131 0
h -127 -130 120 131 0
h -128 -129 120 131 0
h -128 -130 131 0
h -131 117 0
h -137 87 140 0
h -138 88 140 0
h -139 89 140 0
h -133 87 140 0
h -134 88 140 0
h -135 89 140 0
h -133 -137 88 140 0
h -133 -138 89 140 0
h -133 -139 140 0
h -134 -137 89 140 0
h -134 -138 140 0
h -134 -139 87 0
h -135 -137 140 0
h -135 -138 87 0
h -135 -139 88 0
h -140 84 0
h -136 84 0
h -140 -136 85 0
h -132 84 0
h -140 -132 85 0
h -132 -136 85 0
h -140 -132 -136 86 0
h -42 145 0
h -148 145 0
h -149 146 0
h -148 -42 146 0
h -149 -42 147 0
h -41 148 0
h -40 148 0
h -40 -41 149 0
h -145 137 150 0
h -146 138 150 0
h -147 139 150 0
h -142 137 150 0
h -143 138 150 0
h -144 139 150 0
h -142 -145 138 150 0
h -142 -146 139 150 0
h -142 -147 150 0
h -143 -145 139 150 0
h -143 -146 150 0
h -143 -147 137 0
h -144 -145 150 0
h -144 -146 137 0
h -144 -147 138 0
h -150 136 0
h -141 136 0
h -150 -141 0
h -37 151 0
h -36 151 0
h -36 -37 152 0
h -39 153 0
h -38 153 0
h -38 -39 154 0
h -153 142 155 0
h -154 143 155 0
h -151 142 155 0
h -152 143 155 0
h -151 -153 143 155 0
h -151 -154 144 155 0
h -152 -153 144 155 0
h -152 -154 155 0
h -155 141 0
h -35 160 0
h -163 160 0
h -164 161 0
h -163 -35 161 0
h -164 -35 162 0
h -34 163 0
h -33 163 0
h -33 -34 164 0
h -160 133 165 0
h -161 134 165 0
h -162 135 165 0
h -157 133 165 0
h -158 134 165 0
h -159 135 165 0
h -157 -160 134 165 0
h -157 -161 135 165 0
h -157 -162 165 0
h -158 -160 135 165 0
h -158 -161 165 0
h -158 -162 133 0
h -159 -160 165 0
h -159 -161 133 0
h -159 -162 134 0
h -165 132 0
h -156 132 0
h -165 -156 0
h -30 166 0
h -29 166 0
h -29 -30 167 0
h -32 168 0
h -31 168 0
h -31 -32 169 0
h -168 157 170 0
h -169 158 170 0
h -166 157 170 0
h -167 158 170 0
h -166 -168 158 170 0
h -166 -169 159 170 0
h -167 -168 159 170 0
h -167 -169 170 0
h -170 156 0
h -180 71 183 0
h -181 72 183 0
h -182 73 183 0
h -174 71 183 0
h -175 72 183 0
h -176 73 183 0
h -174 -180 72 183 0
h -174 -181 73 183 0
h -174 -182 183 0
h -175 -180 73 183 0
h -175 -181 183 0
h -175 -182 71 0
h -176 -180 183 0
h -176 -181 71 0
h -176 -182 72 0
h -183 65 0
h -177 65 0
h -183 -177 66 0
h -178 66 0
h -183 -178 67 0
h -179 67 0
h -183 -179 68 0
h -171 65 0
h -183 -171 66 0
h -172 66 0
h -183 -172 67 0
h -173 67 0
h -183 -173 68 0
h -171 -177 66 0
h -183 -171 -177 67 0
h -171 -178 67 0
h -183 -171 -178 68 0
h -171 -179 68 0
h -183 -171 -179 69 0
h -172 -177 67 0
h -183 -172 -177 68 0
h -172 -178 68 0
h -183 -172 -178 69 0
h -172 -179 69 0
h -183 -172 -179 70 0
h -173 -177 68 0
h -183 -173 -177 69 0
h -173 -178 69 0
h -183 -173 -178 70 0
h -173 -179 70 0
h -183 -173 -179 0
h -189 180 192 0
h -190 181 192 0
h -191 182 192 0
h -185 180 192 0
h -186 181 192 0
h -187 182 192 0
h -185 -189 181 192 0
h -185 -190 182 192 0
h -185 -191 192 0
h -186 -189 182 192 0
h -186 -190 192 0
h -186 -191 180 0
h -187 -189 192 0
h -187 -190 180 0
h -187 -191 181 0
h -192 177 0
h -188 177 0
h -192 -188 178 0
h -184 177 0
h -192 -184 178 0
h -184 -188 178 0
h -192 -184 -188 179 0
h -28 197 0
h -200 197 0
h -201 198 0
h -200 -28 198 0
h -201 -28 199 0
h -27 200 0
h -26 200 0
h -26 -27 201 0
h -197 189 202 0
h -198 190 202 0
h -199 191 202 0
h -194 189 202 0
h -195 190 202 0
h -196 191 202 0
h -194 -197 190 202 0
h -194 -198 191 202 0
h -194 -199 202 0
h -195 -197 191 202 0
h -195 -198 202 0
h -195 -199 189 0
h -196 -197 202 0
h -196 -198 189 0
h -196 -199 190 0
h -202 188 0
h -193 188 0
h -202 -193 0
h -23 203 0
h -22 203 0
h -22 -23 204 0
h -25 205 0
h -24 205 0
h -24 -25 206 0
h -205 194 207 0
h -206 195 207 0
h -203 194 207 0
h -204 195 207 0
h -203 -205 195 207 0
h -203 -206 196 207 0
h -204 -205 196 207 0
h -204 -206 207 0
h -207 193 0
h -21 212 0
h -215 212 0
h -216 213 0
h -215 -21 213 0
h -216 -21 214 0
h -20 215 0
h -19 215 0
h -19 -20 216 0
h -212 185 217 0
h -213 186 217 0
h -214 187 217 0
h -209 185 217 0
h -210 186 217 0
h -211 187 217 0
h -209 -212 186 217 0
h -209 -213 187 217 0
h -209 -214 217 0
h -210 -212 187 217 0
h -210 -213 217 0
h -210 -214 185 0
h -211 -212 217 0
h -211 -213 185 0
h -211 -214 186 0
h -217 184 0
h -208 184 0
h -217 -208 0
h -16 218 0
h -15 218 0
h -15 -16 219 0
h -18 220 0
h -17 220 0
h -17 -18 221 0
h -220 209 222 0
h -221 210 222 0
h -218 209 222 0
h -219 210 222 0
h -218 -220 210 222 0
h -218 -221 211 222 0
h -219 -220 211 222 0
h -219 -221 222 0
h -222 208 0
h -228 174 231 0
h -229 175 231 0
h -230 176 231 0
h -224 174 231 0
h -225 175 231 0
h -226 176 231 0
h -224 -228 175 231 0
h -224 -229 176 231 0
h -224 -230 231 0
h -225 -228 176 231 0
h -225 -229 231 0
h -225 -230 174 0
h -226 -228 231 0
h -226 -229 174 0
h -226 -230 175 0
h -231 171 0
h -227 171 0
h -231 -227 172 0
h -223 171 0
h -231 -223 172 0
h -223 -227 172 0
h -231 -223 -227 173 0
h -14 236 0
h -239 236 0
h -240 237 0
h -239 -14 237 0
h -240 -14 238 0
h -13 239 0
h -12 239 0
h -12 -13 240 0
h -236 228 241 0
h -237 229 241 0
h -238 230 241 0
h -233 228 241 0
h -234 229 241 0
h -235 230 241 0
h -233 -236 229 241 0
h -233 -237 230 241 0
h -233 -238 241 0
h -234 -236 230 241 0
h -234 -237 241 0
h -234 -238 228 0
h -235 -236 241 0
h -235 -237 228 0
h -235 -238 229 0
h -241 227 0
h -232 227 0
h -241 -232 0
h -9 242 0
h -8 242 0
h -8 -9 243 0
h -11 244 0
h -10 244 0
h -10 -11 245 0
h -244 233 246 0
h -245 234 246 0
h -242 233 246 0
h -243 234 246 0
h -242 -244 234 246 0
h -242 -245 235 246 0
h -243 -244 235 246 0
h -243 -245 246 0
h -246 232 0
h -7 251 0
h -254 251 0
h -255 252 0
h -254 -7 252 0
h -255 -7 253 0
h -6 254 0
h -5 254 0
h -5 -6 255 0
h -251 224 256 0
h -252 225 256 0
h -253 226 256 0
h -248 224 256 0
h -249 225 256 0
h -250 226 256 0
h -248 -251 225 256 0
h -248 -252 226 256 0
h -248 -253 256 0
h -249 -251 226 256 0
h -249 -252 256 0
h -249 -253 224 0
h -250 -251 256 0
h -250 -252 224 0
h -250 -253 225 0
h -256 223 0
h -247 223 0
h -256 -247 0
h -2 257 0
h -1 257 0
h -1 -2 258 0
h -4 259 0
h -3 259 0
h -3 -4 260 0
h -259 248 261 0
h -260 249 261 0
h -257 248 261 0
h -258 249 261 0
h -257 -259 249 261 0
h -257 -260 250 261 0
h -258 -259 250 261 0
h -258 -260 261 0
h -261 247 0
h -61 -62 0
h -61 -63 0
h -61 -64 0
